p cnf 395 1341
c p weight 158 -1 0
c p weight -158 1 0
c p weight 160 6.12323399573676603586882014729198302312846062338790031898128063403419218957424163818359375E-17 0
c p weight -160 1 0
c p weight 161 1 0
c p weight -161 1 0
c p weight 162 -1 0
c p weight -162 1 0
c p weight 164 -1 0
c p weight -164 1 0
c p weight 167 -1 0
c p weight -167 1 0
c p weight 170 -1 0
c p weight -170 1 0
c p weight 173 -1 0
c p weight -173 1 0
c p weight 176 -1 0
c p weight -176 1 0
c p weight 179 -1 0
c p weight -179 1 0
c p weight 182 -1 0
c p weight -182 1 0
c p weight 185 -1 0
c p weight -185 1 0
c p weight 188 -1 0
c p weight -188 1 0
c p weight 191 -1 0
c p weight -191 1 0
c p weight 194 -1 0
c p weight -194 1 0
c p weight 197 -1 0
c p weight -197 1 0
c p weight 200 -1 0
c p weight -200 1 0
c p weight 203 -1 0
c p weight -203 1 0
c p weight 206 -1 0
c p weight -206 1 0
c p weight 209 -1 0
c p weight -209 1 0
c p weight 212 -1 0
c p weight -212 1 0
c p weight 215 -1 0
c p weight -215 1 0
c p weight 218 -1 0
c p weight -218 1 0
c p weight 221 -1 0
c p weight -221 1 0
c p weight 224 -1 0
c p weight -224 1 0
c p weight 227 -1 0
c p weight -227 1 0
c p weight 230 -1 0
c p weight -230 1 0
c p weight 233 -1 0
c p weight -233 1 0
c p weight 236 -1 0
c p weight -236 1 0
c p weight 239 -1 0
c p weight -239 1 0
c p weight 242 -1 0
c p weight -242 1 0
c p weight 245 -1 0
c p weight -245 1 0
c p weight 248 -1 0
c p weight -248 1 0
c p weight 251 -1 0
c p weight -251 1 0
c p weight 254 -1 0
c p weight -254 1 0
c p weight 257 -1 0
c p weight -257 1 0
c p weight 260 -1 0
c p weight -260 1 0
c p weight 263 -1 0
c p weight -263 1 0
c p weight 266 -1 0
c p weight -266 1 0
c p weight 269 -1 0
c p weight -269 1 0
c p weight 272 -1 0
c p weight -272 1 0
c p weight 275 -1 0
c p weight -275 1 0
c p weight 278 -1 0
c p weight -278 1 0
c p weight 281 -1 0
c p weight -281 1 0
c p weight 284 -1 0
c p weight -284 1 0
c p weight 287 -1 0
c p weight -287 1 0
c p weight 290 -1 0
c p weight -290 1 0
c p weight 293 -1 0
c p weight -293 1 0
c p weight 296 -1 0
c p weight -296 1 0
c p weight 299 -1 0
c p weight -299 1 0
c p weight 302 -1 0
c p weight -302 1 0
c p weight 305 -1 0
c p weight -305 1 0
c p weight 308 -1 0
c p weight -308 1 0
c p weight 311 -1 0
c p weight -311 1 0
c p weight 314 -1 0
c p weight -314 1 0
c p weight 317 -1 0
c p weight -317 1 0
c p weight 320 -1 0
c p weight -320 1 0
c p weight 323 -1 0
c p weight -323 1 0
c p weight 326 -1 0
c p weight -326 1 0
c p weight 329 -1 0
c p weight -329 1 0
c p weight 332 -1 0
c p weight -332 1 0
c p weight 335 -1 0
c p weight -335 1 0
c p weight 338 -1 0
c p weight -338 1 0
c p weight 341 -1 0
c p weight -341 1 0
c p weight 344 -1 0
c p weight -344 1 0
c p weight 347 -1 0
c p weight -347 1 0
c p weight 350 -1 0
c p weight -350 1 0
c p weight 353 -1 0
c p weight -353 1 0
c p weight 356 -1 0
c p weight -356 1 0
c p weight 359 -1 0
c p weight -359 1 0
c p weight 362 -1 0
c p weight -362 1 0
c p weight 365 -1 0
c p weight -365 1 0
c p weight 368 -1 0
c p weight -368 1 0
c p weight 371 -1 0
c p weight -371 1 0
c p weight 374 -1 0
c p weight -374 1 0
c p weight 377 -1 0
c p weight -377 1 0
c p weight 380 -1 0
c p weight -380 1 0
c p weight 383 -1 0
c p weight -383 1 0
c p weight 386 -1 0
c p weight -386 1 0
c p weight 389 -1 0
c p weight -389 1 0
c p weight 392 -1 0
c p weight -392 1 0
c p weight 395 -1 0
c p weight -395 1 0
-155 0
-153 0
-151 0
-149 0
-147 0
-145 0
-143 0
-141 0
-139 0
-137 0
-135 0
-133 0
-131 0
-129 0
-127 0
-125 0
-123 0
-121 0
-119 0
-117 0
-115 0
-113 0
-111 0
-109 0
-107 0
-105 0
-103 0
-101 0
-99 0
-97 0
-95 0
-93 0
-91 0
-89 0
-87 0
-85 0
-83 0
-81 0
-79 0
-77 0
-75 0
-73 0
-71 0
-69 0
-67 0
-65 0
-63 0
-61 0
-59 0
-57 0
-55 0
-53 0
-51 0
-49 0
-47 0
-45 0
-43 0
-41 0
-39 0
-37 0
-35 0
-33 0
-31 0
-29 0
-27 0
-25 0
-23 0
-21 0
-19 0
-17 0
-15 0
-13 0
-11 0
-9 0
-7 0
-5 0
-3 0
-1 0
157 155 -156 0
157 -155 156 0
-157 155 156 0
-157 -155 -156 0
-158 155 0
-158 156 0
158 -155 -156 0
159 -155 157 0
-159 155 157 0
-160 157 0
159 -160 -155 0
-159 -160 155 0
159 160 155 -157 0
-159 160 -155 -157 0
-161 157 0
159 -161 155 0
-159 -161 -155 0
159 161 -155 -157 0
-159 161 155 -157 0
-162 159 0
-162 157 0
-162 -155 0
162 -159 155 -157 0
163 159 -157 0
163 -159 157 0
-163 159 157 0
-163 -159 -157 0
-164 159 0
-164 157 0
164 -159 -157 0
165 159 -153 0
165 -159 153 0
-165 159 153 0
-165 -159 -153 0
166 163 -154 0
166 -163 154 0
-166 163 154 0
-166 -163 -154 0
-167 159 0
-167 154 0
-167 153 -163 0
-167 -153 163 0
167 -159 153 163 -154 0
167 -159 -153 -163 -154 0
168 165 -151 0
168 -165 151 0
-168 165 151 0
-168 -165 -151 0
169 154 -152 0
169 -154 152 0
-169 154 152 0
-169 -154 -152 0
-170 165 0
-170 152 0
-170 151 -154 0
-170 -151 154 0
170 -165 151 154 -152 0
170 -165 -151 -154 -152 0
171 168 -149 0
171 -168 149 0
-171 168 149 0
-171 -168 -149 0
172 152 -150 0
172 -152 150 0
-172 152 150 0
-172 -152 -150 0
-173 168 0
-173 150 0
-173 149 -152 0
-173 -149 152 0
173 -168 149 152 -150 0
173 -168 -149 -152 -150 0
174 171 -147 0
174 -171 147 0
-174 171 147 0
-174 -171 -147 0
175 150 -148 0
175 -150 148 0
-175 150 148 0
-175 -150 -148 0
-176 171 0
-176 148 0
-176 147 -150 0
-176 -147 150 0
176 -171 147 150 -148 0
176 -171 -147 -150 -148 0
177 174 -145 0
177 -174 145 0
-177 174 145 0
-177 -174 -145 0
178 148 -146 0
178 -148 146 0
-178 148 146 0
-178 -148 -146 0
-179 174 0
-179 146 0
-179 145 -148 0
-179 -145 148 0
179 -174 145 148 -146 0
179 -174 -145 -148 -146 0
180 177 -143 0
180 -177 143 0
-180 177 143 0
-180 -177 -143 0
181 146 -144 0
181 -146 144 0
-181 146 144 0
-181 -146 -144 0
-182 177 0
-182 144 0
-182 143 -146 0
-182 -143 146 0
182 -177 143 146 -144 0
182 -177 -143 -146 -144 0
183 180 -141 0
183 -180 141 0
-183 180 141 0
-183 -180 -141 0
184 144 -142 0
184 -144 142 0
-184 144 142 0
-184 -144 -142 0
-185 180 0
-185 142 0
-185 141 -144 0
-185 -141 144 0
185 -180 141 144 -142 0
185 -180 -141 -144 -142 0
186 183 -139 0
186 -183 139 0
-186 183 139 0
-186 -183 -139 0
187 142 -140 0
187 -142 140 0
-187 142 140 0
-187 -142 -140 0
-188 183 0
-188 140 0
-188 139 -142 0
-188 -139 142 0
188 -183 139 142 -140 0
188 -183 -139 -142 -140 0
189 186 -137 0
189 -186 137 0
-189 186 137 0
-189 -186 -137 0
190 140 -138 0
190 -140 138 0
-190 140 138 0
-190 -140 -138 0
-191 186 0
-191 138 0
-191 137 -140 0
-191 -137 140 0
191 -186 137 140 -138 0
191 -186 -137 -140 -138 0
192 189 -135 0
192 -189 135 0
-192 189 135 0
-192 -189 -135 0
193 138 -136 0
193 -138 136 0
-193 138 136 0
-193 -138 -136 0
-194 189 0
-194 136 0
-194 135 -138 0
-194 -135 138 0
194 -189 135 138 -136 0
194 -189 -135 -138 -136 0
195 192 -133 0
195 -192 133 0
-195 192 133 0
-195 -192 -133 0
196 136 -134 0
196 -136 134 0
-196 136 134 0
-196 -136 -134 0
-197 192 0
-197 134 0
-197 133 -136 0
-197 -133 136 0
197 -192 133 136 -134 0
197 -192 -133 -136 -134 0
198 195 -131 0
198 -195 131 0
-198 195 131 0
-198 -195 -131 0
199 134 -132 0
199 -134 132 0
-199 134 132 0
-199 -134 -132 0
-200 195 0
-200 132 0
-200 131 -134 0
-200 -131 134 0
200 -195 131 134 -132 0
200 -195 -131 -134 -132 0
201 198 -129 0
201 -198 129 0
-201 198 129 0
-201 -198 -129 0
202 132 -130 0
202 -132 130 0
-202 132 130 0
-202 -132 -130 0
-203 198 0
-203 130 0
-203 129 -132 0
-203 -129 132 0
203 -198 129 132 -130 0
203 -198 -129 -132 -130 0
204 201 -127 0
204 -201 127 0
-204 201 127 0
-204 -201 -127 0
205 130 -128 0
205 -130 128 0
-205 130 128 0
-205 -130 -128 0
-206 201 0
-206 128 0
-206 127 -130 0
-206 -127 130 0
206 -201 127 130 -128 0
206 -201 -127 -130 -128 0
207 204 -125 0
207 -204 125 0
-207 204 125 0
-207 -204 -125 0
208 128 -126 0
208 -128 126 0
-208 128 126 0
-208 -128 -126 0
-209 204 0
-209 126 0
-209 125 -128 0
-209 -125 128 0
209 -204 125 128 -126 0
209 -204 -125 -128 -126 0
210 207 -123 0
210 -207 123 0
-210 207 123 0
-210 -207 -123 0
211 126 -124 0
211 -126 124 0
-211 126 124 0
-211 -126 -124 0
-212 207 0
-212 124 0
-212 123 -126 0
-212 -123 126 0
212 -207 123 126 -124 0
212 -207 -123 -126 -124 0
213 210 -121 0
213 -210 121 0
-213 210 121 0
-213 -210 -121 0
214 124 -122 0
214 -124 122 0
-214 124 122 0
-214 -124 -122 0
-215 210 0
-215 122 0
-215 121 -124 0
-215 -121 124 0
215 -210 121 124 -122 0
215 -210 -121 -124 -122 0
216 213 -119 0
216 -213 119 0
-216 213 119 0
-216 -213 -119 0
217 122 -120 0
217 -122 120 0
-217 122 120 0
-217 -122 -120 0
-218 213 0
-218 120 0
-218 119 -122 0
-218 -119 122 0
218 -213 119 122 -120 0
218 -213 -119 -122 -120 0
219 216 -117 0
219 -216 117 0
-219 216 117 0
-219 -216 -117 0
220 120 -118 0
220 -120 118 0
-220 120 118 0
-220 -120 -118 0
-221 216 0
-221 118 0
-221 117 -120 0
-221 -117 120 0
221 -216 117 120 -118 0
221 -216 -117 -120 -118 0
222 219 -115 0
222 -219 115 0
-222 219 115 0
-222 -219 -115 0
223 118 -116 0
223 -118 116 0
-223 118 116 0
-223 -118 -116 0
-224 219 0
-224 116 0
-224 115 -118 0
-224 -115 118 0
224 -219 115 118 -116 0
224 -219 -115 -118 -116 0
225 222 -113 0
225 -222 113 0
-225 222 113 0
-225 -222 -113 0
226 116 -114 0
226 -116 114 0
-226 116 114 0
-226 -116 -114 0
-227 222 0
-227 114 0
-227 113 -116 0
-227 -113 116 0
227 -222 113 116 -114 0
227 -222 -113 -116 -114 0
228 225 -111 0
228 -225 111 0
-228 225 111 0
-228 -225 -111 0
229 114 -112 0
229 -114 112 0
-229 114 112 0
-229 -114 -112 0
-230 225 0
-230 112 0
-230 111 -114 0
-230 -111 114 0
230 -225 111 114 -112 0
230 -225 -111 -114 -112 0
231 228 -109 0
231 -228 109 0
-231 228 109 0
-231 -228 -109 0
232 112 -110 0
232 -112 110 0
-232 112 110 0
-232 -112 -110 0
-233 228 0
-233 110 0
-233 109 -112 0
-233 -109 112 0
233 -228 109 112 -110 0
233 -228 -109 -112 -110 0
234 231 -107 0
234 -231 107 0
-234 231 107 0
-234 -231 -107 0
235 110 -108 0
235 -110 108 0
-235 110 108 0
-235 -110 -108 0
-236 231 0
-236 108 0
-236 107 -110 0
-236 -107 110 0
236 -231 107 110 -108 0
236 -231 -107 -110 -108 0
237 234 -105 0
237 -234 105 0
-237 234 105 0
-237 -234 -105 0
238 108 -106 0
238 -108 106 0
-238 108 106 0
-238 -108 -106 0
-239 234 0
-239 106 0
-239 105 -108 0
-239 -105 108 0
239 -234 105 108 -106 0
239 -234 -105 -108 -106 0
240 237 -103 0
240 -237 103 0
-240 237 103 0
-240 -237 -103 0
241 106 -104 0
241 -106 104 0
-241 106 104 0
-241 -106 -104 0
-242 237 0
-242 104 0
-242 103 -106 0
-242 -103 106 0
242 -237 103 106 -104 0
242 -237 -103 -106 -104 0
243 240 -101 0
243 -240 101 0
-243 240 101 0
-243 -240 -101 0
244 104 -102 0
244 -104 102 0
-244 104 102 0
-244 -104 -102 0
-245 240 0
-245 102 0
-245 101 -104 0
-245 -101 104 0
245 -240 101 104 -102 0
245 -240 -101 -104 -102 0
246 243 -99 0
246 -243 99 0
-246 243 99 0
-246 -243 -99 0
247 102 -100 0
247 -102 100 0
-247 102 100 0
-247 -102 -100 0
-248 243 0
-248 100 0
-248 99 -102 0
-248 -99 102 0
248 -243 99 102 -100 0
248 -243 -99 -102 -100 0
249 246 -97 0
249 -246 97 0
-249 246 97 0
-249 -246 -97 0
250 100 -98 0
250 -100 98 0
-250 100 98 0
-250 -100 -98 0
-251 246 0
-251 98 0
-251 97 -100 0
-251 -97 100 0
251 -246 97 100 -98 0
251 -246 -97 -100 -98 0
252 249 -95 0
252 -249 95 0
-252 249 95 0
-252 -249 -95 0
253 98 -96 0
253 -98 96 0
-253 98 96 0
-253 -98 -96 0
-254 249 0
-254 96 0
-254 95 -98 0
-254 -95 98 0
254 -249 95 98 -96 0
254 -249 -95 -98 -96 0
255 252 -93 0
255 -252 93 0
-255 252 93 0
-255 -252 -93 0
256 96 -94 0
256 -96 94 0
-256 96 94 0
-256 -96 -94 0
-257 252 0
-257 94 0
-257 93 -96 0
-257 -93 96 0
257 -252 93 96 -94 0
257 -252 -93 -96 -94 0
258 255 -91 0
258 -255 91 0
-258 255 91 0
-258 -255 -91 0
259 94 -92 0
259 -94 92 0
-259 94 92 0
-259 -94 -92 0
-260 255 0
-260 92 0
-260 91 -94 0
-260 -91 94 0
260 -255 91 94 -92 0
260 -255 -91 -94 -92 0
261 258 -89 0
261 -258 89 0
-261 258 89 0
-261 -258 -89 0
262 92 -90 0
262 -92 90 0
-262 92 90 0
-262 -92 -90 0
-263 258 0
-263 90 0
-263 89 -92 0
-263 -89 92 0
263 -258 89 92 -90 0
263 -258 -89 -92 -90 0
264 261 -87 0
264 -261 87 0
-264 261 87 0
-264 -261 -87 0
265 90 -88 0
265 -90 88 0
-265 90 88 0
-265 -90 -88 0
-266 261 0
-266 88 0
-266 87 -90 0
-266 -87 90 0
266 -261 87 90 -88 0
266 -261 -87 -90 -88 0
267 264 -85 0
267 -264 85 0
-267 264 85 0
-267 -264 -85 0
268 88 -86 0
268 -88 86 0
-268 88 86 0
-268 -88 -86 0
-269 264 0
-269 86 0
-269 85 -88 0
-269 -85 88 0
269 -264 85 88 -86 0
269 -264 -85 -88 -86 0
270 267 -83 0
270 -267 83 0
-270 267 83 0
-270 -267 -83 0
271 86 -84 0
271 -86 84 0
-271 86 84 0
-271 -86 -84 0
-272 267 0
-272 84 0
-272 83 -86 0
-272 -83 86 0
272 -267 83 86 -84 0
272 -267 -83 -86 -84 0
273 270 -81 0
273 -270 81 0
-273 270 81 0
-273 -270 -81 0
274 84 -82 0
274 -84 82 0
-274 84 82 0
-274 -84 -82 0
-275 270 0
-275 82 0
-275 81 -84 0
-275 -81 84 0
275 -270 81 84 -82 0
275 -270 -81 -84 -82 0
276 273 -79 0
276 -273 79 0
-276 273 79 0
-276 -273 -79 0
277 82 -80 0
277 -82 80 0
-277 82 80 0
-277 -82 -80 0
-278 273 0
-278 80 0
-278 79 -82 0
-278 -79 82 0
278 -273 79 82 -80 0
278 -273 -79 -82 -80 0
279 276 -77 0
279 -276 77 0
-279 276 77 0
-279 -276 -77 0
280 80 -78 0
280 -80 78 0
-280 80 78 0
-280 -80 -78 0
-281 276 0
-281 78 0
-281 77 -80 0
-281 -77 80 0
281 -276 77 80 -78 0
281 -276 -77 -80 -78 0
282 279 -75 0
282 -279 75 0
-282 279 75 0
-282 -279 -75 0
283 78 -76 0
283 -78 76 0
-283 78 76 0
-283 -78 -76 0
-284 279 0
-284 76 0
-284 75 -78 0
-284 -75 78 0
284 -279 75 78 -76 0
284 -279 -75 -78 -76 0
285 282 -73 0
285 -282 73 0
-285 282 73 0
-285 -282 -73 0
286 76 -74 0
286 -76 74 0
-286 76 74 0
-286 -76 -74 0
-287 282 0
-287 74 0
-287 73 -76 0
-287 -73 76 0
287 -282 73 76 -74 0
287 -282 -73 -76 -74 0
288 285 -71 0
288 -285 71 0
-288 285 71 0
-288 -285 -71 0
289 74 -72 0
289 -74 72 0
-289 74 72 0
-289 -74 -72 0
-290 285 0
-290 72 0
-290 71 -74 0
-290 -71 74 0
290 -285 71 74 -72 0
290 -285 -71 -74 -72 0
291 288 -69 0
291 -288 69 0
-291 288 69 0
-291 -288 -69 0
292 72 -70 0
292 -72 70 0
-292 72 70 0
-292 -72 -70 0
-293 288 0
-293 70 0
-293 69 -72 0
-293 -69 72 0
293 -288 69 72 -70 0
293 -288 -69 -72 -70 0
294 291 -67 0
294 -291 67 0
-294 291 67 0
-294 -291 -67 0
295 70 -68 0
295 -70 68 0
-295 70 68 0
-295 -70 -68 0
-296 291 0
-296 68 0
-296 67 -70 0
-296 -67 70 0
296 -291 67 70 -68 0
296 -291 -67 -70 -68 0
297 294 -65 0
297 -294 65 0
-297 294 65 0
-297 -294 -65 0
298 68 -66 0
298 -68 66 0
-298 68 66 0
-298 -68 -66 0
-299 294 0
-299 66 0
-299 65 -68 0
-299 -65 68 0
299 -294 65 68 -66 0
299 -294 -65 -68 -66 0
300 297 -63 0
300 -297 63 0
-300 297 63 0
-300 -297 -63 0
301 66 -64 0
301 -66 64 0
-301 66 64 0
-301 -66 -64 0
-302 297 0
-302 64 0
-302 63 -66 0
-302 -63 66 0
302 -297 63 66 -64 0
302 -297 -63 -66 -64 0
303 300 -61 0
303 -300 61 0
-303 300 61 0
-303 -300 -61 0
304 64 -62 0
304 -64 62 0
-304 64 62 0
-304 -64 -62 0
-305 300 0
-305 62 0
-305 61 -64 0
-305 -61 64 0
305 -300 61 64 -62 0
305 -300 -61 -64 -62 0
306 303 -59 0
306 -303 59 0
-306 303 59 0
-306 -303 -59 0
307 62 -60 0
307 -62 60 0
-307 62 60 0
-307 -62 -60 0
-308 303 0
-308 60 0
-308 59 -62 0
-308 -59 62 0
308 -303 59 62 -60 0
308 -303 -59 -62 -60 0
309 306 -57 0
309 -306 57 0
-309 306 57 0
-309 -306 -57 0
310 60 -58 0
310 -60 58 0
-310 60 58 0
-310 -60 -58 0
-311 306 0
-311 58 0
-311 57 -60 0
-311 -57 60 0
311 -306 57 60 -58 0
311 -306 -57 -60 -58 0
312 309 -55 0
312 -309 55 0
-312 309 55 0
-312 -309 -55 0
313 58 -56 0
313 -58 56 0
-313 58 56 0
-313 -58 -56 0
-314 309 0
-314 56 0
-314 55 -58 0
-314 -55 58 0
314 -309 55 58 -56 0
314 -309 -55 -58 -56 0
315 312 -53 0
315 -312 53 0
-315 312 53 0
-315 -312 -53 0
316 56 -54 0
316 -56 54 0
-316 56 54 0
-316 -56 -54 0
-317 312 0
-317 54 0
-317 53 -56 0
-317 -53 56 0
317 -312 53 56 -54 0
317 -312 -53 -56 -54 0
318 315 -51 0
318 -315 51 0
-318 315 51 0
-318 -315 -51 0
319 54 -52 0
319 -54 52 0
-319 54 52 0
-319 -54 -52 0
-320 315 0
-320 52 0
-320 51 -54 0
-320 -51 54 0
320 -315 51 54 -52 0
320 -315 -51 -54 -52 0
321 318 -49 0
321 -318 49 0
-321 318 49 0
-321 -318 -49 0
322 52 -50 0
322 -52 50 0
-322 52 50 0
-322 -52 -50 0
-323 318 0
-323 50 0
-323 49 -52 0
-323 -49 52 0
323 -318 49 52 -50 0
323 -318 -49 -52 -50 0
324 321 -47 0
324 -321 47 0
-324 321 47 0
-324 -321 -47 0
325 50 -48 0
325 -50 48 0
-325 50 48 0
-325 -50 -48 0
-326 321 0
-326 48 0
-326 47 -50 0
-326 -47 50 0
326 -321 47 50 -48 0
326 -321 -47 -50 -48 0
327 324 -45 0
327 -324 45 0
-327 324 45 0
-327 -324 -45 0
328 48 -46 0
328 -48 46 0
-328 48 46 0
-328 -48 -46 0
-329 324 0
-329 46 0
-329 45 -48 0
-329 -45 48 0
329 -324 45 48 -46 0
329 -324 -45 -48 -46 0
330 327 -43 0
330 -327 43 0
-330 327 43 0
-330 -327 -43 0
331 46 -44 0
331 -46 44 0
-331 46 44 0
-331 -46 -44 0
-332 327 0
-332 44 0
-332 43 -46 0
-332 -43 46 0
332 -327 43 46 -44 0
332 -327 -43 -46 -44 0
333 330 -41 0
333 -330 41 0
-333 330 41 0
-333 -330 -41 0
334 44 -42 0
334 -44 42 0
-334 44 42 0
-334 -44 -42 0
-335 330 0
-335 42 0
-335 41 -44 0
-335 -41 44 0
335 -330 41 44 -42 0
335 -330 -41 -44 -42 0
336 333 -39 0
336 -333 39 0
-336 333 39 0
-336 -333 -39 0
337 42 -40 0
337 -42 40 0
-337 42 40 0
-337 -42 -40 0
-338 333 0
-338 40 0
-338 39 -42 0
-338 -39 42 0
338 -333 39 42 -40 0
338 -333 -39 -42 -40 0
339 336 -37 0
339 -336 37 0
-339 336 37 0
-339 -336 -37 0
340 40 -38 0
340 -40 38 0
-340 40 38 0
-340 -40 -38 0
-341 336 0
-341 38 0
-341 37 -40 0
-341 -37 40 0
341 -336 37 40 -38 0
341 -336 -37 -40 -38 0
342 339 -35 0
342 -339 35 0
-342 339 35 0
-342 -339 -35 0
343 38 -36 0
343 -38 36 0
-343 38 36 0
-343 -38 -36 0
-344 339 0
-344 36 0
-344 35 -38 0
-344 -35 38 0
344 -339 35 38 -36 0
344 -339 -35 -38 -36 0
345 342 -33 0
345 -342 33 0
-345 342 33 0
-345 -342 -33 0
346 36 -34 0
346 -36 34 0
-346 36 34 0
-346 -36 -34 0
-347 342 0
-347 34 0
-347 33 -36 0
-347 -33 36 0
347 -342 33 36 -34 0
347 -342 -33 -36 -34 0
348 345 -31 0
348 -345 31 0
-348 345 31 0
-348 -345 -31 0
349 34 -32 0
349 -34 32 0
-349 34 32 0
-349 -34 -32 0
-350 345 0
-350 32 0
-350 31 -34 0
-350 -31 34 0
350 -345 31 34 -32 0
350 -345 -31 -34 -32 0
351 348 -29 0
351 -348 29 0
-351 348 29 0
-351 -348 -29 0
352 32 -30 0
352 -32 30 0
-352 32 30 0
-352 -32 -30 0
-353 348 0
-353 30 0
-353 29 -32 0
-353 -29 32 0
353 -348 29 32 -30 0
353 -348 -29 -32 -30 0
354 351 -27 0
354 -351 27 0
-354 351 27 0
-354 -351 -27 0
355 30 -28 0
355 -30 28 0
-355 30 28 0
-355 -30 -28 0
-356 351 0
-356 28 0
-356 27 -30 0
-356 -27 30 0
356 -351 27 30 -28 0
356 -351 -27 -30 -28 0
357 354 -25 0
357 -354 25 0
-357 354 25 0
-357 -354 -25 0
358 28 -26 0
358 -28 26 0
-358 28 26 0
-358 -28 -26 0
-359 354 0
-359 26 0
-359 25 -28 0
-359 -25 28 0
359 -354 25 28 -26 0
359 -354 -25 -28 -26 0
360 357 -23 0
360 -357 23 0
-360 357 23 0
-360 -357 -23 0
361 26 -24 0
361 -26 24 0
-361 26 24 0
-361 -26 -24 0
-362 357 0
-362 24 0
-362 23 -26 0
-362 -23 26 0
362 -357 23 26 -24 0
362 -357 -23 -26 -24 0
363 360 -21 0
363 -360 21 0
-363 360 21 0
-363 -360 -21 0
364 24 -22 0
364 -24 22 0
-364 24 22 0
-364 -24 -22 0
-365 360 0
-365 22 0
-365 21 -24 0
-365 -21 24 0
365 -360 21 24 -22 0
365 -360 -21 -24 -22 0
366 363 -19 0
366 -363 19 0
-366 363 19 0
-366 -363 -19 0
367 22 -20 0
367 -22 20 0
-367 22 20 0
-367 -22 -20 0
-368 363 0
-368 20 0
-368 19 -22 0
-368 -19 22 0
368 -363 19 22 -20 0
368 -363 -19 -22 -20 0
369 366 -17 0
369 -366 17 0
-369 366 17 0
-369 -366 -17 0
370 20 -18 0
370 -20 18 0
-370 20 18 0
-370 -20 -18 0
-371 366 0
-371 18 0
-371 17 -20 0
-371 -17 20 0
371 -366 17 20 -18 0
371 -366 -17 -20 -18 0
372 369 -15 0
372 -369 15 0
-372 369 15 0
-372 -369 -15 0
373 18 -16 0
373 -18 16 0
-373 18 16 0
-373 -18 -16 0
-374 369 0
-374 16 0
-374 15 -18 0
-374 -15 18 0
374 -369 15 18 -16 0
374 -369 -15 -18 -16 0
375 372 -13 0
375 -372 13 0
-375 372 13 0
-375 -372 -13 0
376 16 -14 0
376 -16 14 0
-376 16 14 0
-376 -16 -14 0
-377 372 0
-377 14 0
-377 13 -16 0
-377 -13 16 0
377 -372 13 16 -14 0
377 -372 -13 -16 -14 0
378 375 -11 0
378 -375 11 0
-378 375 11 0
-378 -375 -11 0
379 14 -12 0
379 -14 12 0
-379 14 12 0
-379 -14 -12 0
-380 375 0
-380 12 0
-380 11 -14 0
-380 -11 14 0
380 -375 11 14 -12 0
380 -375 -11 -14 -12 0
381 378 -9 0
381 -378 9 0
-381 378 9 0
-381 -378 -9 0
382 12 -10 0
382 -12 10 0
-382 12 10 0
-382 -12 -10 0
-383 378 0
-383 10 0
-383 9 -12 0
-383 -9 12 0
383 -378 9 12 -10 0
383 -378 -9 -12 -10 0
384 381 -7 0
384 -381 7 0
-384 381 7 0
-384 -381 -7 0
385 10 -8 0
385 -10 8 0
-385 10 8 0
-385 -10 -8 0
-386 381 0
-386 8 0
-386 7 -10 0
-386 -7 10 0
386 -381 7 10 -8 0
386 -381 -7 -10 -8 0
387 384 -5 0
387 -384 5 0
-387 384 5 0
-387 -384 -5 0
388 8 -6 0
388 -8 6 0
-388 8 6 0
-388 -8 -6 0
-389 384 0
-389 6 0
-389 5 -8 0
-389 -5 8 0
389 -384 5 8 -6 0
389 -384 -5 -8 -6 0
390 387 -3 0
390 -387 3 0
-390 387 3 0
-390 -387 -3 0
391 6 -4 0
391 -6 4 0
-391 6 4 0
-391 -6 -4 0
-392 387 0
-392 4 0
-392 3 -6 0
-392 -3 6 0
392 -387 3 6 -4 0
392 -387 -3 -6 -4 0
393 390 -1 0
393 -390 1 0
-393 390 1 0
-393 -390 -1 0
394 4 -2 0
394 -4 2 0
-394 4 2 0
-394 -4 -2 0
-395 390 0
-395 2 0
-395 1 -4 0
-395 -1 4 0
395 -390 1 4 -2 0
395 -390 -1 -4 -2 0
-393 0
-390 0
-394 0
-387 0
-391 0
-384 0
-388 0
-381 0
-385 0
-378 0
-382 0
-375 0
-379 0
-372 0
-376 0
-369 0
-373 0
-366 0
-370 0
-363 0
-367 0
-360 0
-364 0
-357 0
-361 0
-354 0
-358 0
-351 0
-355 0
-348 0
-352 0
-345 0
-349 0
-342 0
-346 0
-339 0
-343 0
-336 0
-340 0
-333 0
-337 0
-330 0
-334 0
-327 0
-331 0
-324 0
-328 0
-321 0
-325 0
-318 0
-322 0
-315 0
-319 0
-312 0
-316 0
-309 0
-313 0
-306 0
-310 0
-303 0
-307 0
-300 0
-304 0
-297 0
-301 0
-294 0
-298 0
-291 0
-295 0
-288 0
-292 0
-285 0
-289 0
-282 0
-286 0
-279 0
-283 0
-276 0
-280 0
-273 0
-277 0
-270 0
-274 0
-267 0
-271 0
-264 0
-268 0
-261 0
-265 0
-258 0
-262 0
-255 0
-259 0
-252 0
-256 0
-249 0
-253 0
-246 0
-250 0
-243 0
-247 0
-240 0
-244 0
-237 0
-241 0
-234 0
-238 0
-231 0
-235 0
-228 0
-232 0
-225 0
-229 0
-222 0
-226 0
-219 0
-223 0
-216 0
-220 0
-213 0
-217 0
-210 0
-214 0
-207 0
-211 0
-204 0
-208 0
-201 0
-205 0
-198 0
-202 0
-195 0
-199 0
-192 0
-196 0
-189 0
-193 0
-186 0
-190 0
-183 0
-187 0
-180 0
-184 0
-177 0
-181 0
-174 0
-178 0
-171 0
-175 0
-168 0
-172 0
-165 0
-169 0
-159 0
-166 0
